p cnf 133 197               
-4 -3 -21 0
21 -25 0
-3 22 0
-4 22 0
3 4 -22 0
-22 -5 -23 0
23 -25 0
5 22 -24 0
24 -25 0
25 -36 0
-7 -6 -26 0
26 -30 0
-6 27 0
-7 27 0
6 7 -27 0
-27 -8 -28 0
28 -30 0
8 27 -29 0
29 -30 0
30 -36 0
-10 -9 -31 0
31 -35 0
-9 32 0
-10 32 0
9 10 -32 0
-32 -11 -33 0
33 -35 0
11 32 -34 0
34 -35 0
35 -36 0
36 -69 0
-13 -12 -37 0
37 -41 0
-12 38 0
-13 38 0
12 13 -38 0
-38 -14 -39 0
39 -41 0
14 38 -40 0
40 -41 0
41 -52 0
-16 -15 -42 0
42 -46 0
-15 43 0
-16 43 0
15 16 -43 0
-43 -17 -44 0
44 -46 0
17 43 -45 0
45 -46 0
46 -52 0
-19 -18 -47 0
47 -51 0
-18 48 0
-19 48 0
18 19 -48 0
-48 -20 -49 0
49 -51 0
20 48 -50 0
50 -51 0
51 -52 0
52 -69 0
-1 -53 0
2 -53 0
53 -55 0
-2 1 -54 0
54 -55 0
-5 -56 0
-4 -56 0
56 -59 0
-8 -57 0
-6 -57 0
57 -59 0
-10 -58 0
-9 -58 0
58 -59 0
59 -61 0
-11 -7 -3 -60 0
60 -61 0
-14 -62 0
-13 -62 0
62 -65 0
-17 -63 0
-15 -63 0
63 -65 0
-19 -64 0
-18 -64 0
64 -65 0
65 -67 0
-20 -16 -12 -66 0
66 -67 0
55 61 67 -68 0
68 -69 0
-3 7 -70 0
70 -100 0
-3 -7 71 0
3 7 71 0
-7 7 71 0
-4 6 -72 0
-71 72 -73 0
73 -100 0
-4 -6 74 0
4 6 74 0
-6 6 74 0
-71 -74 75 0
-5 8 -76 0
-75 76 -77 0
77 -100 0
-5 -8 78 0
5 8 78 0
-8 8 78 0
-75 -78 79 0
-9 10 -80 0
-79 80 -81 0
81 -100 0
-9 -10 82 0
9 10 82 0
-10 10 82 0
-79 -82 83 0
-12 16 -84 0
-83 84 -85 0
85 -100 0
-12 -16 86 0
12 16 86 0
-16 16 86 0
-83 -86 87 0
-13 15 -88 0
-87 88 -89 0
89 -100 0
-13 -15 90 0
13 15 90 0
-15 15 90 0
-87 -90 91 0
-14 17 -92 0
-91 92 -93 0
93 -100 0
-14 -17 94 0
14 17 94 0
-17 17 94 0
-91 -94 95 0
-18 19 -96 0
-95 96 -97 0
97 -100 0
100 -132 0
-4 5 -101 0
101 -131 0
-4 -5 102 0
4 5 102 0
-5 5 102 0
-6 9 -103 0
-102 103 -104 0
104 -131 0
-6 -9 105 0
6 9 105 0
-9 9 105 0
-102 -105 106 0
-7 11 -107 0
-106 107 -108 0
108 -131 0
-7 -11 109 0
7 11 109 0
-11 11 109 0
-106 -109 110 0
-8 10 -111 0
-110 111 -112 0
112 -131 0
-8 -10 113 0
8 10 113 0
-10 10 113 0
-110 -113 114 0
-13 14 -115 0
-114 115 -116 0
116 -131 0
-13 -14 117 0
13 14 117 0
-14 14 117 0
-114 -117 118 0
-15 18 -119 0
-118 119 -120 0
120 -131 0
-15 -18 121 0
15 18 121 0
-18 18 121 0
-118 -121 122 0
-16 20 -123 0
-122 123 -124 0
124 -131 0
-16 -20 125 0
16 20 125 0
-20 20 125 0
-122 -125 126 0
-17 19 -127 0
-126 127 -128 0
128 -131 0
131 -132 0
69 0
132 0
